# Multiprotein complexes
#
#
units       real
dimension   3
boundary    p p p
atom_style  full

bond_style  harmonic
#pair_style  kh/cut/coul/debye 0.1 0.0 35.0
#dielectric  80.0

#--------  Input variables  ------#
variable T equal 300.0  #System temperature
variable csx equal 150 # Electrolyte solution ionic strength in mM
variable nts equal 50000000  #Number of simulation steps
#---------------------------------

read_data  data.xyz
#read_restart    pene
#read_restart   restart.tmp.2205000
#replicate 1 1 2
#CSX?
dielectric  80.0

set type 3  charge 1
set type 23 charge 1
set type 5  charge 1
set type 25 charge 1
set type 7  charge -1
set type 27 charge -1
set type 8  charge -1
set type 28 charge -1

set type 16 charge 0.0   # NB charge for His is zero rather than 0.5
set type 36 charge 0.0


pair_style  ljlambda 0.1 0.0 35.0
bond_coeff          1     4.78011   3.82
pair_coeff          *       *   0.000   0.000  0.0000  0.000  0.000
pair_coeff 1 1 0.2 6.18 0.596471 20 0
pair_coeff 1 2 0.2 5.34 0.5450005 20 0
pair_coeff 1 3 0.2 6.27 0.4494125 20 0
pair_coeff 1 4 0.2 5.9 0.5523534999999999 20 0
pair_coeff 1 5 0.2 6.369999999999999 0.5376475000000001 20 0
pair_coeff 1 6 0.2 5.609999999999999 0.5597065 20 0
pair_coeff 1 7 0.2 5.88 0.40529499999999996 20 0
pair_coeff 1 8 0.2 6.05 0.2582355 20 0
pair_coeff 1 9 0.2 6.32 0.706765 20 0
pair_coeff 1 10 0.2 6.02 0.590589 20 0
pair_coeff 1 11 0.2 6.18 0.61853 20 0
pair_coeff 1 12 0.2 6.1 0.5376475000000001 20 0
pair_coeff 1 13 0.2 6.48 0.7582355000000001 20 0
pair_coeff 1 14 0.2 6.27 0.6700005 20 0
pair_coeff 1 15 0.2 5.68 0.5523534999999999 20 0
pair_coeff 1 16 0.2 6.13 0.640589 20 0
pair_coeff 1 17 0.2 5.93 0.5523534999999999 20 0
pair_coeff 1 18 0.2 5.869999999999999 0.6376474999999999 20 0
pair_coeff 1 19 0.2 5.83 0.5817654999999999 20 0
pair_coeff 1 20 0.2 6.18 0.611177 20 0
pair_coeff 2 2 0.2 4.5 0.49353 20 0
pair_coeff 2 3 0.2 5.43 0.397942 20 0
pair_coeff 2 4 0.2 5.0600000000000005 0.500883 20 0
pair_coeff 2 5 0.2 5.529999999999999 0.486177 20 0
pair_coeff 2 6 0.2 4.77 0.508236 20 0
pair_coeff 2 7 0.2 5.04 0.3538245 20 0
pair_coeff 2 8 0.2 5.21 0.206765 20 0
pair_coeff 2 9 0.2 5.48 0.6552945 20 0
pair_coeff 2 10 0.2 5.18 0.5391185000000001 20 0
pair_coeff 2 11 0.2 5.34 0.5670595 20 0
pair_coeff 2 12 0.2 5.26 0.486177 20 0
pair_coeff 2 13 0.2 5.640000000000001 0.7067650000000001 20 0
pair_coeff 2 14 0.2 5.43 0.61853 20 0
pair_coeff 2 15 0.2 4.84 0.500883 20 0
pair_coeff 2 16 0.2 5.29 0.5891185 20 0
pair_coeff 2 17 0.2 5.09 0.500883 20 0
pair_coeff 2 18 0.2 5.029999999999999 0.586177 20 0
pair_coeff 2 19 0.2 4.99 0.530295 20 0
pair_coeff 2 20 0.2 5.34 0.5597065 20 0
pair_coeff 3 3 0.2 6.36 0.302354 20 35.
pair_coeff 3 4 0.2 5.99 0.405295 20 0
pair_coeff 3 5 0.2 6.46 0.390589 20 35.
pair_coeff 3 6 0.2 5.7 0.412648 20 0
pair_coeff 3 7 0.2 5.970000000000001 0.2582365 20 35.
pair_coeff 3 8 0.2 6.140000000000001 0.111177 20 35.
pair_coeff 3 9 0.2 6.41 0.5597065 20 0
pair_coeff 3 10 0.2 6.11 0.4435305 20 0
pair_coeff 3 11 0.2 6.27 0.4714715 20 0
pair_coeff 3 12 0.2 6.1899999999999995 0.390589 20 0
pair_coeff 3 13 0.2 6.57 0.6111770000000001 20 0
pair_coeff 3 14 0.2 6.36 0.522942 20 0
pair_coeff 3 15 0.2 5.77 0.405295 20 0
pair_coeff 3 16 0.2 6.220000000000001 0.4935305 20 0
pair_coeff 3 17 0.2 6.02 0.405295 20 0
pair_coeff 3 18 0.2 5.96 0.490589 20 0
pair_coeff 3 19 0.2 5.92 0.434707 20 0
pair_coeff 3 20 0.2 6.27 0.4641185 20 0
pair_coeff 4 4 0.2 5.62 0.508236 20 0
pair_coeff 4 5 0.2 6.09 0.49353 20 0
pair_coeff 4 6 0.2 5.33 0.5155890000000001 20 0
pair_coeff 4 7 0.2 5.6 0.36117750000000004 20 0
pair_coeff 4 8 0.2 5.77 0.214118 20 0
pair_coeff 4 9 0.2 6.04 0.6626475000000001 20 0
pair_coeff 4 10 0.2 5.74 0.5464715 20 0
pair_coeff 4 11 0.2 5.9 0.5744125 20 0
pair_coeff 4 12 0.2 5.82 0.49353 20 0
pair_coeff 4 13 0.2 6.2 0.714118 20 0
pair_coeff 4 14 0.2 5.99 0.625883 20 0
pair_coeff 4 15 0.2 5.4 0.508236 20 0
pair_coeff 4 16 0.2 5.85 0.5964715 20 0
pair_coeff 4 17 0.2 5.65 0.508236 20 0
pair_coeff 4 18 0.2 5.59 0.59353 20 0
pair_coeff 4 19 0.2 5.550000000000001 0.537648 20 0
pair_coeff 4 20 0.2 5.9 0.5670595 20 0
pair_coeff 5 5 0.2 6.56 0.478824 20 35.
pair_coeff 5 6 0.2 5.8 0.500883 20 0
pair_coeff 5 7 0.2 6.07 0.34647150000000004 20 35.
pair_coeff 5 8 0.2 6.24 0.199412 20 35.
pair_coeff 5 9 0.2 6.51 0.6479415 20 0
pair_coeff 5 10 0.2 6.21 0.5317655 20 0
pair_coeff 5 11 0.2 6.369999999999999 0.5597065 20 0
pair_coeff 5 12 0.2 6.289999999999999 0.478824 20 0
pair_coeff 5 13 0.2 6.67 0.699412 20 0
pair_coeff 5 14 0.2 6.46 0.6111770000000001 20 0
pair_coeff 5 15 0.2 5.869999999999999 0.49353 20 0
pair_coeff 5 16 0.2 6.32 0.5817654999999999 20 0
pair_coeff 5 17 0.2 6.119999999999999 0.49353 20 0
pair_coeff 5 18 0.2 6.06 0.578824 20 0
pair_coeff 5 19 0.2 6.02 0.522942 20 0
pair_coeff 5 20 0.2 6.369999999999999 0.5523534999999999 20 0
pair_coeff 6 6 0.2 5.04 0.522942 20 0
pair_coeff 6 7 0.2 5.3100000000000005 0.3685305 20 0
pair_coeff 6 8 0.2 5.48 0.221471 20 0
pair_coeff 6 9 0.2 5.75 0.6700005 20 0
pair_coeff 6 10 0.2 5.45 0.5538244999999999 20 0
pair_coeff 6 11 0.2 5.609999999999999 0.5817654999999999 20 0
pair_coeff 6 12 0.2 5.529999999999999 0.500883 20 0
pair_coeff 6 13 0.2 5.91 0.721471 20 0
pair_coeff 6 14 0.2 5.7 0.633236 20 0
pair_coeff 6 15 0.2 5.109999999999999 0.5155890000000001 20 0
pair_coeff 6 16 0.2 5.5600000000000005 0.6038245 20 0
pair_coeff 6 17 0.2 5.359999999999999 0.5155890000000001 20 0
pair_coeff 6 18 0.2 5.3 0.6008830000000001 20 0
pair_coeff 6 19 0.2 5.26 0.5450010000000001 20 0
pair_coeff 6 20 0.2 5.609999999999999 0.5744125 20 0
pair_coeff 7 7 0.2 5.58 0.214119 20 35.
pair_coeff 7 8 0.2 5.75 0.0670595 20 35.
pair_coeff 7 9 0.2 6.02 0.515589 20 0
pair_coeff 7 10 0.2 5.720000000000001 0.399413 20 0
pair_coeff 7 11 0.2 5.88 0.427354 20 0
pair_coeff 7 12 0.2 5.8 0.34647150000000004 20 0
pair_coeff 7 13 0.2 6.18 0.5670595 20 0
pair_coeff 7 14 0.2 5.970000000000001 0.4788245 20 0
pair_coeff 7 15 0.2 5.38 0.36117750000000004 20 0
pair_coeff 7 16 0.2 5.83 0.44941299999999995 20 0
pair_coeff 7 17 0.2 5.63 0.36117750000000004 20 0
pair_coeff 7 18 0.2 5.57 0.4464715 20 0
pair_coeff 7 19 0.2 5.53 0.39058950000000003 20 0
pair_coeff 7 20 0.2 5.88 0.42000099999999996 20 0
pair_coeff 8 8 0.2 5.92 -0.08 20 35.
pair_coeff 8 9 0.2 6.1899999999999995 0.3685295 20 0
pair_coeff 8 10 0.2 5.890000000000001 0.2523535 20 0
pair_coeff 8 11 0.2 6.05 0.2802945 20 0
pair_coeff 8 12 0.2 5.97 0.199412 20 0
pair_coeff 8 13 0.2 6.35 0.42000000000000004 20 0
pair_coeff 8 14 0.2 6.140000000000001 0.33176500000000003 20 0
pair_coeff 8 15 0.2 5.55 0.214118 20 0
pair_coeff 8 16 0.2 6. 0.3023535 20 0
pair_coeff 8 17 0.2 5.8 0.214118 20 0
pair_coeff 8 18 0.2 5.74 0.299412 20 0
pair_coeff 8 19 0.2 5.7 0.24353 20 0
pair_coeff 8 20 0.2 6.05 0.2729415 20 0
pair_coeff 9 9 0.2 6.46 0.817059 20 0
pair_coeff 9 10 0.2 6.16 0.7008829999999999 20 0
pair_coeff 9 11 0.2 6.32 0.7288239999999999 20 0
pair_coeff 9 12 0.2 6.24 0.6479415 20 0
pair_coeff 9 13 0.2 6.62 0.8685295 20 0
pair_coeff 9 14 0.2 6.41 0.7802945 20 0
pair_coeff 9 15 0.2 5.82 0.6626475000000001 20 0
pair_coeff 9 16 0.2 6.27 0.750883 20 0
pair_coeff 9 17 0.2 6.07 0.6626475000000001 20 0
pair_coeff 9 18 0.2 6.01 0.7479415 20 0
pair_coeff 9 19 0.2 5.970000000000001 0.6920595 20 0
pair_coeff 9 20 0.2 6.32 0.721471 20 0
pair_coeff 10 10 0.2 5.86 0.584707 20 0
pair_coeff 10 11 0.2 6.02 0.612648 20 0
pair_coeff 10 12 0.2 5.9399999999999995 0.5317655 20 0
pair_coeff 10 13 0.2 6.32 0.7523535 20 0
pair_coeff 10 14 0.2 6.11 0.6641185000000001 20 0
pair_coeff 10 15 0.2 5.52 0.5464715 20 0
pair_coeff 10 16 0.2 5.970000000000001 0.6347069999999999 20 0
pair_coeff 10 17 0.2 5.77 0.5464715 20 0
pair_coeff 10 18 0.2 5.71 0.6317655 20 0
pair_coeff 10 19 0.2 5.67 0.5758835 20 0
pair_coeff 10 20 0.2 6.02 0.6052949999999999 20 0
pair_coeff 11 11 0.2 6.18 0.640589 20 0
pair_coeff 11 12 0.2 6.1 0.5597065 20 0
pair_coeff 11 13 0.2 6.48 0.7802945 20 0
pair_coeff 11 14 0.2 6.27 0.6920595 20 0
pair_coeff 11 15 0.2 5.68 0.5744125 20 0
pair_coeff 11 16 0.2 6.13 0.6626479999999999 20 0
pair_coeff 11 17 0.2 5.93 0.5744125 20 0
pair_coeff 11 18 0.2 5.869999999999999 0.6597065 20 0
pair_coeff 11 19 0.2 5.83 0.6038245 20 0
pair_coeff 11 20 0.2 6.18 0.6332359999999999 20 0
pair_coeff 12 12 0.2 6.02 0.478824 20 0
pair_coeff 12 13 0.2 6.4 0.699412 20 0
pair_coeff 12 14 0.2 6.1899999999999995 0.6111770000000001 20 0
pair_coeff 12 15 0.2 5.6 0.49353 20 0
pair_coeff 12 16 0.2 6.05 0.5817654999999999 20 0
pair_coeff 12 17 0.2 5.85 0.49353 20 0
pair_coeff 12 18 0.2 5.789999999999999 0.578824 20 0
pair_coeff 12 19 0.2 5.75 0.522942 20 0
pair_coeff 12 20 0.2 6.1 0.5523534999999999 20 0
pair_coeff 13 13 0.2 6.78 0.92 20 0
pair_coeff 13 14 0.2 6.57 0.8317650000000001 20 0
pair_coeff 13 15 0.2 5.98 0.714118 20 0
pair_coeff 13 16 0.2 6.43 0.8023534999999999 20 0
pair_coeff 13 17 0.2 6.23 0.714118 20 0
pair_coeff 13 18 0.2 6.17 0.799412 20 0
pair_coeff 13 19 0.2 6.130000000000001 0.74353 20 0
pair_coeff 13 20 0.2 6.48 0.7729415 20 0
pair_coeff 14 14 0.2 6.36 0.74353 20 0
pair_coeff 14 15 0.2 5.77 0.625883 20 0
pair_coeff 14 16 0.2 6.220000000000001 0.7141185 20 0
pair_coeff 14 17 0.2 6.02 0.625883 20 0
pair_coeff 14 18 0.2 5.96 0.711177 20 0
pair_coeff 14 19 0.2 5.92 0.655295 20 0
pair_coeff 14 20 0.2 6.27 0.6847065 20 0
pair_coeff 15 15 0.2 5.18 0.508236 20 0
pair_coeff 15 16 0.2 5.63 0.5964715 20 0
pair_coeff 15 17 0.2 5.43 0.508236 20 0
pair_coeff 15 18 0.2 5.369999999999999 0.59353 20 0
pair_coeff 15 19 0.2 5.33 0.537648 20 0
pair_coeff 15 20 0.2 5.68 0.5670595 20 0
pair_coeff 16 16 0.2 6.08 0.684707 20 0
pair_coeff 16 17 0.2 5.88 0.5964715 20 0
pair_coeff 16 18 0.2 5.82 0.6817655 20 0
pair_coeff 16 19 0.2 5.78 0.6258835 20 0
pair_coeff 16 20 0.2 6.13 0.655295 20 0
pair_coeff 17 17 0.2 5.68 0.508236 20 0
pair_coeff 17 18 0.2 5.619999999999999 0.59353 20 0
pair_coeff 17 19 0.2 5.58 0.537648 20 0
pair_coeff 17 20 0.2 5.93 0.5670595 20 0
pair_coeff 18 18 0.2 5.56 0.678824 20 0
pair_coeff 18 19 0.2 5.52 0.622942 20 0
pair_coeff 18 20 0.2 5.869999999999999 0.6523535 20 0
pair_coeff 19 19 0.2 5.48 0.56706 20 0
pair_coeff 19 20 0.2 5.83 0.5964715 20 0
pair_coeff 20 20 0.2 6.18 0.625883 20 0


#group     CD1 id 285:371 811:897 1337:1423 1863:1949 2389:2475 2915:3001 3441:3527 3967:4053 4493:4579 5019:5105 5545:5631 6071:6157 6597:6683 7123:7209 7649:7735 8175:8261 8701:8787 9227:9313 9753:9839 10279:10365 10805:10891 11331:11417 11857:11943 12383:12469 

#group     CD2 id 422:453 948:979 1474:1505 2000:2031 2526:2557 3052:3083 3578:3609 4104:4135 4630:4661 5156:5187 5682:5713 6208:6239 6734:6765 7260:7291 7786:7817 8312:8343 8838:8869 9364:9395 9890:9921 10416:10447 10942:10973 11468:11499 11994:12025 12520:12551 

#group     nonrigid subtract all CD1 CD2

special_bonds fene
neighbor  3.5 multi

#neigh_modify  exclude molecule CD



#neigh_modify  exclude molecule/intra CD1
#neigh_modify  exclude molecule/intra CD2
#neigh_modify  exclude molecule/intra CSD
neigh_modify  every 10 delay 0

comm_style    tiled
timestep      10




velocity      all create ${T} 494211
#fix           fxrig1  CD rigid/nvt molecule temp 300 300 100.0

fix           fxnve   all nve
#fix           fxnverigid1 CD1 rigid/nvt molecule temp 300.0 300.0 5000.0 #z 10.0 10.0 5000.0
#fix           fxnverigid2 CD2 rigid/nvt molecule temp 300.0 300.0 5000.0 #z 10.0 10.0 5000.0
#fix           fxlange nonrigid langevin 300.0 300.0 5000.0 32784


#fix           fxrig2  CSD rigid/nve molecule

fix           fxlange all langevin ${T} ${T} 10000.0 327843
#fix           visco all viscous 100000
#fix           fxnpt nonrigid press/berendsen z 20.0 20.0 5000.0 dilate all
#fix           fxbal  all balance 1000 1.01 rcb
#

#fix 23 all npt temp 300 300 5000.0 iso 0 0 5000.1
#LO HE DESCOMENTADO YO PREGUNTAR
#fix           fixcentro all recenter INIT INIT INIT
#fix           fxbal  all balance 1000 1.05 rcb

compute densidad all chunk/atom bin/1d z lower 1
fix 3 all ave/chunk 10000 1 10000 densidad density/mass file density.profile

dump          1 all custom 400000 result.lammpstrj id mol type q x y z 
#dump          2 all molfile 1000 result.pdb pdb :/home/ag949/plugins/install/plugins/LINUXIA64/molfile
dump_modify   1 sort id

#compute       rad all gyration
#compute       dis all pair/local dist
#compute       maximo all reduce max c_dis
#compute       mean all reduce ave c_dis

thermo        1000
thermo_style  custom step pe press ke temp lx ly lz pzz  spcpu density 
thermo_modify flush yes


#restart       2000000 restart.tmp
restart 100000 restart1.tmp restart2.tmp
run ${nts}
#run           200000000
write_data final.data nocoeff
