# Multiprotein complexes
#
#
units       real
dimension   3
boundary    p p p
atom_style  full

bond_style  harmonic
#pair_style  kh/cut/coul/debye 0.1 0.0 35.0
#CSX?
dielectric  80.0

#--------  Input variables  ------#
variable T equal 250.0  #System temperature
variable csx equal 150 # Electrolyte solution ionic strength in mM
variable nts equal 100000000  #Number of simulation steps
#---------------------------------

read_data  data.xyz
#read_restart    save
#read_restart   restart.tmp.2205000
#replicate 1 1 2
#group del id > 12624
#delete_atoms group del 

######CAMBIAR CUTOFF LJ para mayor rapidez
pair_style hybrid/overlay  ljlambda 0.1 0.0 35.0 lj/cut 10.0
set type * charge 0
set type 3 charge 1
set type 5 charge 1
set type 7 charge -1
set type 8 charge -1

# pairwise coefficients
bond_coeff          1     2.400     3.81 
#                  type1  type2 epsilon sigma  lambda  lj_cut  coulm_cut
pair_coeff   *   * ljlambda   0.000   0.000  0.0000  0.000  0.000
pair_coeff  1   1  ljlambda 0.200000  6.180  0.837838  18.540  0.000
pair_coeff  1   2  ljlambda 0.200000  5.340  0.743243  16.020  0.000
pair_coeff  1   3  ljlambda 0.200000  6.270  0.675676  18.810  0.000
pair_coeff  1   4  ljlambda 0.200000  5.900  0.756757  17.700  0.000
pair_coeff  1   5  ljlambda 0.200000  6.370  0.418919  19.110  0.000
pair_coeff  1   6  ljlambda 0.200000  5.610  0.783784  16.830  0.000
pair_coeff  1   7  ljlambda 0.200000  5.880  0.608108  17.640  0.000
pair_coeff  1   8  ljlambda 0.200000  6.050  0.648649  18.150  0.000
pair_coeff  1   9  ljlambda 0.200000  6.320  0.851351  18.960  0.000
pair_coeff  1   10 ljlambda 0.200000  6.020  0.864865  18.060  0.000
pair_coeff  1   11 ljlambda 0.200000  6.180  0.905406  18.540  0.000
pair_coeff  1   12 ljlambda 0.200000  6.100  0.675676  18.300  0.000
pair_coeff  1   13 ljlambda 0.200000  6.480  0.891892  19.440  0.000
pair_coeff  1   14 ljlambda 0.200000  6.270  0.918919  18.810  0.000
pair_coeff  1   15 ljlambda 0.200000  5.680  0.716217  17.040  0.000
pair_coeff  1   16 ljlambda 0.200000  6.130  0.675676  18.390  0.000
pair_coeff  1   17 ljlambda 0.200000  5.930  0.635135  17.790  0.000
pair_coeff  1   18 ljlambda 0.200000  5.870  0.918919  17.610  0.000
pair_coeff  1   19 ljlambda 0.200000  5.830  0.716217  17.490  0.000
pair_coeff  1   20 ljlambda 0.200000  6.180  0.905406  18.540  0.000
pair_coeff  1   21 ljlambda 0.200000  6.180  0.586487  18.540  0.000
pair_coeff  1   22 ljlambda 0.200000  5.340  0.52027   16.020  0.000
pair_coeff  1   23 ljlambda 0.200000  6.270  0.472973  18.810  0.000
pair_coeff  1   24 ljlambda 0.200000  5.900  0.52973   17.700  0.000
pair_coeff  1   25 ljlambda 0.200000  6.370  0.293243  19.110  0.000
pair_coeff  1   26 ljlambda 0.200000  5.610  0.548649  16.830  0.000
pair_coeff  1   27 ljlambda 0.200000  5.880  0.425676  17.640  0.000
pair_coeff  1   28 ljlambda 0.200000  6.050  0.454054  18.150  0.000
pair_coeff  1   29 ljlambda 0.200000  6.320  0.595946  18.960  0.000
pair_coeff  1   30 ljlambda 0.200000  6.020  0.605405  18.060  0.000
pair_coeff  1   31 ljlambda 0.200000  6.180  0.633784  18.540  0.000
pair_coeff  1   32 ljlambda 0.200000  6.100  0.472973  18.300  0.000
pair_coeff  1   33 ljlambda 0.200000  6.480  0.624324  19.440  0.000
pair_coeff  1   34 ljlambda 0.200000  6.270  0.643243  18.810  0.000
pair_coeff  1   35 ljlambda 0.200000  5.680  0.501352  17.040  0.000
pair_coeff  1   36 ljlambda 0.200000  6.130  0.472973  18.390  0.000
pair_coeff  1   37 ljlambda 0.200000  5.930  0.444594  17.790  0.000
pair_coeff  1   38 ljlambda 0.200000  5.870  0.643243  17.610  0.000
pair_coeff  1   39 ljlambda 0.200000  5.830  0.501352  17.490  0.000
pair_coeff  1   40 ljlambda 0.200000  6.180  0.633784  18.540  0.000
pair_coeff  2   2  ljlambda 0.200000  4.500  0.648649  13.500  0.000
pair_coeff  2   3  ljlambda 0.200000  5.430  0.581082  16.290  0.000
pair_coeff  2   4  ljlambda 0.200000  5.060  0.662162  15.180  0.000
pair_coeff  2   5  ljlambda 0.200000  5.530  0.324324  16.590  0.000
pair_coeff  2   6  ljlambda 0.200000  4.770  0.689189  14.310  0.000
pair_coeff  2   7  ljlambda 0.200000  5.040  0.513514  15.120  0.000
pair_coeff  2   8  ljlambda 0.200000  5.210  0.554054  15.630  0.000
pair_coeff  2   9  ljlambda 0.200000  5.480  0.756757  16.440  0.000
pair_coeff  2   10 ljlambda 0.200000  5.180  0.770270  15.540  0.000
pair_coeff  2   11 ljlambda 0.200000  5.340  0.810811  16.020  0.000
pair_coeff  2   12 ljlambda 0.200000  5.260  0.581082  15.780  0.000
pair_coeff  2   13 ljlambda 0.200000  5.640  0.797297  16.920  0.000
pair_coeff  2   14 ljlambda 0.200000  5.430  0.824324  16.290  0.000
pair_coeff  2   15 ljlambda 0.200000  4.840  0.621622  14.520  0.000
pair_coeff  2   16 ljlambda 0.200000  5.290  0.581082  15.870  0.000
pair_coeff  2   17 ljlambda 0.200000  5.090  0.540540  15.270  0.000
pair_coeff  2   18 ljlambda 0.200000  5.030  0.824324  15.090  0.000
pair_coeff  2   19 ljlambda 0.200000  4.990  0.621622  14.970  0.000
pair_coeff  2   20 ljlambda 0.200000  5.340  0.810811  16.020  0.000
pair_coeff  2   21 ljlambda 0.200000  5.340  0.52027   16.020  0.000
pair_coeff  2   22 ljlambda 0.200000  4.500  0.454054  13.500  0.000
pair_coeff  2   23 ljlambda 0.200000  5.430  0.406757  16.290  0.000
pair_coeff  2   24 ljlambda 0.200000  5.060  0.463513  15.180  0.000
pair_coeff  2   25 ljlambda 0.200000  5.530  0.227027  16.590  0.000
pair_coeff  2   26 ljlambda 0.200000  4.770  0.482432  14.310  0.000
pair_coeff  2   27 ljlambda 0.200000  5.040  0.35946   15.120  0.000
pair_coeff  2   28 ljlambda 0.200000  5.210  0.387838  15.630  0.000
pair_coeff  2   29 ljlambda 0.200000  5.480  0.52973   16.440  0.000
pair_coeff  2   30 ljlambda 0.200000  5.180  0.539189  15.540  0.000
pair_coeff  2   31 ljlambda 0.200000  5.340  0.567568  16.020  0.000
pair_coeff  2   32 ljlambda 0.200000  5.260  0.406757  15.780  0.000
pair_coeff  2   33 ljlambda 0.200000  5.640  0.558108  16.920  0.000
pair_coeff  2   34 ljlambda 0.200000  5.430  0.577027  16.290  0.000
pair_coeff  2   35 ljlambda 0.200000  4.840  0.435135  14.520  0.000
pair_coeff  2   36 ljlambda 0.200000  5.290  0.406757  15.870  0.000
pair_coeff  2   37 ljlambda 0.200000  5.090  0.378378  15.270  0.000
pair_coeff  2   38 ljlambda 0.200000  5.030  0.577027  15.090  0.000
pair_coeff  2   39 ljlambda 0.200000  4.990  0.435135  14.970  0.000
pair_coeff  2   40 ljlambda 0.200000  5.340  0.567568  16.020  0.000
pair_coeff  3   3  ljlambda 0.200000  6.360  0.513514  19.080  35.000
pair_coeff  3   4  ljlambda 0.200000  5.990  0.594595  17.970  0.000
pair_coeff  3   5  ljlambda 0.200000  6.460  0.256757  19.380  35.000
pair_coeff  3   6  ljlambda 0.200000  5.700  0.621622  17.100  0.000
pair_coeff  3   7  ljlambda 0.200000  5.970  0.445946  17.910  35.000
pair_coeff  3   8  ljlambda 0.200000  6.140  0.486486  18.420  35.000
pair_coeff  3   9  ljlambda 0.200000  6.410  0.689189  19.230  0.000
pair_coeff  3   10 ljlambda 0.200000  6.110  0.702703  18.330  0.000
pair_coeff  3   11 ljlambda 0.200000  6.270  0.743243  18.810  0.000
pair_coeff  3   12 ljlambda 0.200000  6.190  0.513514  18.570  0.000
pair_coeff  3   13 ljlambda 0.200000  6.570  0.729730  19.710  0.000
pair_coeff  3   14 ljlambda 0.200000  6.360  0.756757  19.080  0.000
pair_coeff  3   15 ljlambda 0.200000  5.770  0.554054  17.310  0.000
pair_coeff  3   16 ljlambda 0.200000  6.220  0.513514  18.660  35.000
pair_coeff  3   17 ljlambda 0.200000  6.020  0.472973  18.060  0.000
pair_coeff  3   18 ljlambda 0.200000  5.960  0.756757  17.880  0.000
pair_coeff  3   19 ljlambda 0.200000  5.920  0.554054  17.760  0.000
pair_coeff  3   20 ljlambda 0.200000  6.270  0.743243  18.810  0.000
pair_coeff  3   21 ljlambda 0.200000  6.270  0.472973  18.810  0.000
pair_coeff  3   22 ljlambda 0.200000  5.430  0.406757  16.290  0.000
pair_coeff  3   23 ljlambda 0.200000  6.360  0.35946   19.080  35.000
pair_coeff  3   24 ljlambda 0.200000  5.990  0.416216  17.970  0.000
pair_coeff  3   25 ljlambda 0.200000  6.460  0.17973   19.380  35.000
pair_coeff  3   26 ljlambda 0.200000  5.700  0.435135  17.100  0.000
pair_coeff  3   27 ljlambda 0.200000  5.970  0.312162  17.910  35.000
pair_coeff  3   28 ljlambda 0.200000  6.140  0.34054   18.420  35.000
pair_coeff  3   29 ljlambda 0.200000  6.410  0.482432  19.230  0.000
pair_coeff  3   30 ljlambda 0.200000  6.110  0.491892  18.330  0.000
pair_coeff  3   31 ljlambda 0.200000  6.270  0.52027   18.810  0.000
pair_coeff  3   32 ljlambda 0.200000  6.190  0.35946   18.570  0.000
pair_coeff  3   33 ljlambda 0.200000  6.570  0.510811  19.710  0.000
pair_coeff  3   34 ljlambda 0.200000  6.360  0.52973   19.080  0.000
pair_coeff  3   35 ljlambda 0.200000  5.770  0.387838  17.310  0.000
pair_coeff  3   36 ljlambda 0.200000  6.220  0.35946   18.660  35.000
pair_coeff  3   37 ljlambda 0.200000  6.020  0.331081  18.060  0.000
pair_coeff  3   38 ljlambda 0.200000  5.960  0.52973   17.880  0.000
pair_coeff  3   39 ljlambda 0.200000  5.920  0.387838  17.760  0.000
pair_coeff  3   40 ljlambda 0.200000  6.270  0.52027   18.810  0.000
pair_coeff  4   4  ljlambda 0.200000  5.620  0.675676  16.860  0.000
pair_coeff  4   5  ljlambda 0.200000  6.090  0.337838  18.270  0.000
pair_coeff  4   6  ljlambda 0.200000  5.330  0.702703  15.990  0.000
pair_coeff  4   7  ljlambda 0.200000  5.600  0.527027  16.800  0.000
pair_coeff  4   8  ljlambda 0.200000  5.770  0.567567  17.310  0.000
pair_coeff  4   9  ljlambda 0.200000  6.040  0.770270  18.120  0.000
pair_coeff  4   10 ljlambda 0.200000  5.740  0.783784  17.220  0.000
pair_coeff  4   11 ljlambda 0.200000  5.900  0.824324  17.700  0.000
pair_coeff  4   12 ljlambda 0.200000  5.820  0.594595  17.460  0.000
pair_coeff  4   13 ljlambda 0.200000  6.200  0.810811  18.600  0.000
pair_coeff  4   14 ljlambda 0.200000  5.990  0.837838  17.970  0.000
pair_coeff  4   15 ljlambda 0.200000  5.400  0.635136  16.200  0.000
pair_coeff  4   16 ljlambda 0.200000  5.850  0.594595  17.550  0.000
pair_coeff  4   17 ljlambda 0.200000  5.650  0.554054  16.950  0.000
pair_coeff  4   18 ljlambda 0.200000  5.590  0.837838  16.770  0.000
pair_coeff  4   19 ljlambda 0.200000  5.550  0.635136  16.650  0.000
pair_coeff  4   20 ljlambda 0.200000  5.900  0.824324  17.700  0.000
pair_coeff  4   21 ljlambda 0.200000  5.900  0.52973   17.700  0.000
pair_coeff  4   22 ljlambda 0.200000  5.060  0.463513  15.180  0.000
pair_coeff  4   23 ljlambda 0.200000  5.990  0.416216  17.970  0.000
pair_coeff  4   24 ljlambda 0.200000  5.620  0.472973  16.860  0.000
pair_coeff  4   25 ljlambda 0.200000  6.090  0.236487  18.270  0.000
pair_coeff  4   26 ljlambda 0.200000  5.330  0.491892  15.990  0.000
pair_coeff  4   27 ljlambda 0.200000  5.600  0.368919  16.800  0.000
pair_coeff  4   28 ljlambda 0.200000  5.770  0.397297  17.310  0.000
pair_coeff  4   29 ljlambda 0.200000  6.040  0.539189  18.120  0.000
pair_coeff  4   30 ljlambda 0.200000  5.740  0.548649  17.220  0.000
pair_coeff  4   31 ljlambda 0.200000  5.900  0.577027  17.700  0.000
pair_coeff  4   32 ljlambda 0.200000  5.820  0.416216  17.460  0.000
pair_coeff  4   33 ljlambda 0.200000  6.200  0.567568  18.600  0.000
pair_coeff  4   34 ljlambda 0.200000  5.990  0.586487  17.970  0.000
pair_coeff  4   35 ljlambda 0.200000  5.400  0.444595  16.200  0.000
pair_coeff  4   36 ljlambda 0.200000  5.850  0.416216  17.550  0.000
pair_coeff  4   37 ljlambda 0.200000  5.650  0.387838  16.950  0.000
pair_coeff  4   38 ljlambda 0.200000  5.590  0.586487  16.770  0.000
pair_coeff  4   39 ljlambda 0.200000  5.550  0.444595  16.650  0.000
pair_coeff  4   40 ljlambda 0.200000  5.900  0.577027  17.700  0.000
pair_coeff  5   5  ljlambda 0.200000  6.560  0.000000  7.363   35.000
pair_coeff  5   6  ljlambda 0.200000  5.800  0.364865  17.400  0.000
pair_coeff  5   7  ljlambda 0.200000  6.070  0.189189  18.210  35.000
pair_coeff  5   8  ljlambda 0.200000  6.240  0.229730  18.720  35.000
pair_coeff  5   9  ljlambda 0.200000  6.510  0.432433  19.530  0.000
pair_coeff  5   10 ljlambda 0.200000  6.210  0.445946  18.630  0.000
pair_coeff  5   11 ljlambda 0.200000  6.370  0.486486  19.110  0.000
pair_coeff  5   12 ljlambda 0.200000  6.290  0.256757  18.870  0.000
pair_coeff  5   13 ljlambda 0.200000  6.670  0.472973  20.010  0.000
pair_coeff  5   14 ljlambda 0.200000  6.460  0.500000  19.380  0.000
pair_coeff  5   15 ljlambda 0.200000  5.870  0.297298  17.610  0.000
pair_coeff  5   16 ljlambda 0.200000  6.320  0.256757  18.960  35.000
pair_coeff  5   17 ljlambda 0.200000  6.120  0.216216  18.360  0.000
pair_coeff  5   18 ljlambda 0.200000  6.060  0.500000  18.180  0.000
pair_coeff  5   19 ljlambda 0.200000  6.020  0.297298  18.060  0.000
pair_coeff  5   20 ljlambda 0.200000  6.370  0.486486  19.110  0.000
pair_coeff  5   21 ljlambda 0.200000  6.370  0.293243  19.110  0.000
pair_coeff  5   22 ljlambda 0.200000  5.530  0.227027  16.590  0.000
pair_coeff  5   23 ljlambda 0.200000  6.460  0.17973   19.380  35.000
pair_coeff  5   24 ljlambda 0.200000  6.090  0.236487  18.270  0.000
pair_coeff  5   25 ljlambda 0.200000  6.560  0         7.363   35.000
pair_coeff  5   26 ljlambda 0.200000  5.800  0.255406  17.400  0.000
pair_coeff  5   27 ljlambda 0.200000  6.070  0.132432  18.210  35.000
pair_coeff  5   28 ljlambda 0.200000  6.240  0.16079   18.720  35.000
pair_coeff  5   29 ljlambda 0.200000  6.510  0.302703  19.530  0.000
pair_coeff  5   30 ljlambda 0.200000  6.210  0.312162  18.630  0.000
pair_coeff  5   31 ljlambda 0.200000  6.370  0.34054   19.110  0.000
pair_coeff  5   32 ljlambda 0.200000  6.290  0.17973   18.870  0.000
pair_coeff  5   33 ljlambda 0.200000  6.670  0.331081  20.010  0.000
pair_coeff  5   34 ljlambda 0.200000  6.460  0.35      19.380  0.000
pair_coeff  5   35 ljlambda 0.200000  5.870  0.208109  17.610  0.000
pair_coeff  5   36 ljlambda 0.200000  6.320  0.17973   18.960  35.000
pair_coeff  5   37 ljlambda 0.200000  6.120  0.151351  18.360  0.000
pair_coeff  5   38 ljlambda 0.200000  6.060  0.35      18.180  0.000
pair_coeff  5   39 ljlambda 0.200000  6.020  0.208109  18.060  0.000
pair_coeff  5   40 ljlambda 0.200000  6.370  0.34054   19.110  0.000
pair_coeff  6   6  ljlambda 0.200000  5.040  0.729730  15.120  0.000
pair_coeff  6   7  ljlambda 0.200000  5.310  0.554054  15.930  0.000
pair_coeff  6   8  ljlambda 0.200000  5.480  0.594594  16.440  0.000
pair_coeff  6   9  ljlambda 0.200000  5.750  0.797297  17.250  0.000
pair_coeff  6   10 ljlambda 0.200000  5.450  0.810811  16.350  0.000
pair_coeff  6   11 ljlambda 0.200000  5.610  0.851351  16.830  0.000
pair_coeff  6   12 ljlambda 0.200000  5.530  0.621622  16.590  0.000
pair_coeff  6   13 ljlambda 0.200000  5.910  0.837838  17.730  0.000
pair_coeff  6   14 ljlambda 0.200000  5.700  0.864865  17.100  0.000
pair_coeff  6   15 ljlambda 0.200000  5.110  0.662163  15.330  0.000
pair_coeff  6   16 ljlambda 0.200000  5.560  0.621622  16.680  0.000
pair_coeff  6   17 ljlambda 0.200000  5.360  0.581081  16.080  0.000
pair_coeff  6   18 ljlambda 0.200000  5.300  0.864865  15.900  0.000
pair_coeff  6   19 ljlambda 0.200000  5.260  0.662163  15.780  0.000
pair_coeff  6   20 ljlambda 0.200000  5.610  0.851351  16.830  0.000
pair_coeff  6   21 ljlambda 0.200000  5.610  0.548649  16.830  0.000
pair_coeff  6   22 ljlambda 0.200000  4.770  0.482432  14.310  0.000
pair_coeff  6   23 ljlambda 0.200000  5.700  0.435135  17.100  0.000
pair_coeff  6   24 ljlambda 0.200000  5.330  0.491892  15.990  0.000
pair_coeff  6   25 ljlambda 0.200000  5.800  0.255406  17.400  0.000
pair_coeff  6   26 ljlambda 0.200000  5.040  0.510811  15.120  0.000
pair_coeff  6   27 ljlambda 0.200000  5.310  0.387838  15.930  0.000
pair_coeff  6   28 ljlambda 0.200000  5.480  0.416216  16.440  0.000
pair_coeff  6   29 ljlambda 0.200000  5.750  0.558108  17.250  0.000
pair_coeff  6   30 ljlambda 0.200000  5.450  0.567568  16.350  0.000
pair_coeff  6   31 ljlambda 0.200000  5.610  0.595946  16.830  0.000
pair_coeff  6   32 ljlambda 0.200000  5.530  0.435135  16.590  0.000
pair_coeff  6   33 ljlambda 0.200000  5.910  0.586487  17.730  0.000
pair_coeff  6   34 ljlambda 0.200000  5.700  0.605405  17.100  0.000
pair_coeff  6   35 ljlambda 0.200000  5.110  0.463514  15.330  0.000
pair_coeff  6   36 ljlambda 0.200000  5.560  0.435135  16.680  0.000
pair_coeff  6   37 ljlambda 0.200000  5.360  0.406757  16.080  0.000
pair_coeff  6   38 ljlambda 0.200000  5.300  0.605405  15.900  0.000
pair_coeff  6   39 ljlambda 0.200000  5.260  0.463514  15.780  0.000
pair_coeff  6   40 ljlambda 0.200000  5.610  0.595946  16.830  0.000
pair_coeff  7   7  ljlambda 0.200000  5.580  0.378378  16.740  35.000
pair_coeff  7   8  ljlambda 0.200000  5.750  0.418918  17.250  35.000
pair_coeff  7   9  ljlambda 0.200000  6.020  0.621621  18.060  0.000
pair_coeff  7   10 ljlambda 0.200000  5.720  0.635135  17.160  0.000
pair_coeff  7   11 ljlambda 0.200000  5.880  0.675676  17.640  0.000
pair_coeff  7   12 ljlambda 0.200000  5.800  0.445946  17.400  0.000
pair_coeff  7   13 ljlambda 0.200000  6.180  0.662162  18.540  0.000
pair_coeff  7   14 ljlambda 0.200000  5.970  0.689189  17.910  0.000
pair_coeff  7   15 ljlambda 0.200000  5.380  0.486486  16.140  0.000
pair_coeff  7   16 ljlambda 0.200000  5.830  0.445946  17.490  35.000
pair_coeff  7   17 ljlambda 0.200000  5.630  0.405405  16.890  0.000
pair_coeff  7   18 ljlambda 0.200000  5.570  0.689189  16.710  0.000
pair_coeff  7   19 ljlambda 0.200000  5.530  0.486486  16.590  0.000
pair_coeff  7   20 ljlambda 0.200000  5.880  0.675676  17.640  0.000
pair_coeff  7   21 ljlambda 0.200000  5.880  0.425676  17.640  0.000
pair_coeff  7   22 ljlambda 0.200000  5.040  0.35946   15.120  0.000
pair_coeff  7   23 ljlambda 0.200000  5.970  0.312162  17.910  35.000
pair_coeff  7   24 ljlambda 0.200000  5.600  0.368919  16.800  0.000
pair_coeff  7   25 ljlambda 0.200000  6.070  0.132432  18.210  35.000
pair_coeff  7   26 ljlambda 0.200000  5.310  0.387838  15.930  0.000
pair_coeff  7   27 ljlambda 0.200000  5.580  0.264865  16.740  35.000
pair_coeff  7   28 ljlambda 0.200000  5.750  0.293243  17.250  35.000
pair_coeff  7   29 ljlambda 0.200000  6.020  0.435135  18.060  0.000
pair_coeff  7   30 ljlambda 0.200000  5.720  0.444594  17.160  0.000
pair_coeff  7   31 ljlambda 0.200000  5.880  0.472973  17.640  0.000
pair_coeff  7   32 ljlambda 0.200000  5.800  0.312162  17.400  0.000
pair_coeff  7   33 ljlambda 0.200000  6.180  0.463513  18.540  0.000
pair_coeff  7   34 ljlambda 0.200000  5.970  0.482432  17.910  0.000
pair_coeff  7   35 ljlambda 0.200000  5.380  0.34054   16.140  0.000
pair_coeff  7   36 ljlambda 0.200000  5.830  0.312162  17.490  35.000
pair_coeff  7   37 ljlambda 0.200000  5.630  0.283783  16.890  0.000
pair_coeff  7   38 ljlambda 0.200000  5.570  0.482432  16.710  0.000
pair_coeff  7   39 ljlambda 0.200000  5.530  0.34054   16.590  0.000
pair_coeff  7   40 ljlambda 0.200000  5.880  0.472973  17.640  0.000
pair_coeff  8   8  ljlambda 0.200000  5.920  0.459459  17.760  35.000
pair_coeff  8   9  ljlambda 0.200000  6.190  0.662162  18.570  0.000
pair_coeff  8   10 ljlambda 0.200000  5.890  0.675676  17.670  0.000
pair_coeff  8   11 ljlambda 0.200000  6.050  0.716216  18.150  0.000
pair_coeff  8   12 ljlambda 0.200000  5.970  0.486486  17.910  0.000
pair_coeff  8   13 ljlambda 0.200000  6.350  0.702703  19.050  0.000
pair_coeff  8   14 ljlambda 0.200000  6.140  0.729730  18.420  0.000
pair_coeff  8   15 ljlambda 0.200000  5.550  0.527027  16.650  0.000
pair_coeff  8   16 ljlambda 0.200000  6.000  0.486486  18.000  35.000
pair_coeff  8   17 ljlambda 0.200000  5.800  0.445946  17.400  0.000
pair_coeff  8   18 ljlambda 0.200000  5.740  0.729730  17.220  0.000
pair_coeff  8   19 ljlambda 0.200000  5.700  0.527027  17.100  0.000
pair_coeff  8   20 ljlambda 0.200000  6.050  0.716216  18.150  0.000
pair_coeff  8   21 ljlambda 0.200000  6.050  0.454054  18.150  0.000
pair_coeff  8   22 ljlambda 0.200000  5.210  0.387838  15.630  0.000
pair_coeff  8   23 ljlambda 0.200000  6.140  0.34054   18.420  35.000
pair_coeff  8   24 ljlambda 0.200000  5.770  0.397297  17.310  0.000
pair_coeff  8   25 ljlambda 0.200000  6.240  0.17689   18.720  35.000
pair_coeff  8   26 ljlambda 0.200000  5.480  0.416216  16.440  0.000
pair_coeff  8   27 ljlambda 0.200000  5.750  0.293243  17.250  35.000
pair_coeff  8   28 ljlambda 0.200000  5.920  0.321621  17.760  35.000
pair_coeff  8   29 ljlambda 0.200000  6.190  0.463513  18.570  0.000
pair_coeff  8   30 ljlambda 0.200000  5.890  0.472973  17.670  0.000
pair_coeff  8   31 ljlambda 0.200000  6.050  0.501351  18.150  0.000
pair_coeff  8   32 ljlambda 0.200000  5.970  0.34054   17.910  0.000
pair_coeff  8   33 ljlambda 0.200000  6.350  0.491892  19.050  0.000
pair_coeff  8   34 ljlambda 0.200000  6.140  0.510811  18.420  0.000
pair_coeff  8   35 ljlambda 0.200000  5.550  0.368919  16.650  0.000
pair_coeff  8   36 ljlambda 0.200000  6.000  0.34054   18.000  35.000
pair_coeff  8   37 ljlambda 0.200000  5.800  0.312162  17.400  0.000
pair_coeff  8   38 ljlambda 0.200000  5.740  0.510811  17.220  0.000
pair_coeff  8   39 ljlambda 0.200000  5.700  0.368919  17.100  0.000
pair_coeff  8   40 ljlambda 0.200000  6.050  0.501351  18.150  0.000
pair_coeff  9   9  ljlambda 0.200000  6.460  0.864865  19.380  0.000
pair_coeff  9   10 ljlambda 0.200000  6.160  0.878379  18.480  0.000
pair_coeff  9   11 ljlambda 0.200000  6.320  0.918919  18.960  0.000
pair_coeff  9   12 ljlambda 0.200000  6.240  0.689189  18.720  0.000
pair_coeff  9   13 ljlambda 0.200000  6.620  0.905406  19.860  0.000
pair_coeff  9   14 ljlambda 0.200000  6.410  0.932433  19.230  0.000
pair_coeff  9   15 ljlambda 0.200000  5.820  0.729730  17.460  0.000
pair_coeff  9   16 ljlambda 0.200000  6.270  0.689189  18.810  0.000
pair_coeff  9   17 ljlambda 0.200000  6.070  0.648649  18.210  0.000
pair_coeff  9   18 ljlambda 0.200000  6.010  0.932433  18.030  0.000
pair_coeff  9   19 ljlambda 0.200000  5.970  0.729730  17.910  0.000
pair_coeff  9   20 ljlambda 0.200000  6.320  0.918919  18.960  0.000
pair_coeff  9   21 ljlambda 0.200000  6.320  0.595946  18.960  0.000
pair_coeff  9   22 ljlambda 0.200000  5.480  0.52973   16.440  0.000
pair_coeff  9   23 ljlambda 0.200000  6.410  0.482432  19.230  0.000
pair_coeff  9   24 ljlambda 0.200000  6.040  0.539189  18.120  0.000
pair_coeff  9   25 ljlambda 0.200000  6.510  0.302703  19.530  0.000
pair_coeff  9   26 ljlambda 0.200000  5.750  0.558108  17.250  0.000
pair_coeff  9   27 ljlambda 0.200000  6.020  0.435135  18.060  0.000
pair_coeff  9   28 ljlambda 0.200000  6.190  0.463513  18.570  0.000
pair_coeff  9   29 ljlambda 0.200000  6.460  0.605405  19.380  0.000
pair_coeff  9   30 ljlambda 0.200000  6.160  0.614865  18.480  0.000
pair_coeff  9   31 ljlambda 0.200000  6.320  0.643243  18.960  0.000
pair_coeff  9   32 ljlambda 0.200000  6.240  0.482432  18.720  0.000
pair_coeff  9   33 ljlambda 0.200000  6.620  0.633784  19.860  0.000
pair_coeff  9   34 ljlambda 0.200000  6.410  0.652703  19.230  0.000
pair_coeff  9   35 ljlambda 0.200000  5.820  0.510811  17.460  0.000
pair_coeff  9   36 ljlambda 0.200000  6.270  0.482432  18.810  0.000
pair_coeff  9   37 ljlambda 0.200000  6.070  0.454054  18.210  0.000
pair_coeff  9   38 ljlambda 0.200000  6.010  0.652703  18.030  0.000
pair_coeff  9   39 ljlambda 0.200000  5.970  0.510811  17.910  0.000
pair_coeff  9   40 ljlambda 0.200000  6.320  0.643243  18.960  0.000
pair_coeff  10  10 ljlambda 0.200000  5.860  0.891892  17.580  0.000
pair_coeff  10  11 ljlambda 0.200000  6.020  0.932433  18.060  0.000
pair_coeff  10  12 ljlambda 0.200000  5.940  0.702703  17.820  0.000
pair_coeff  10  13 ljlambda 0.200000  6.320  0.918919  18.960  0.000
pair_coeff  10  14 ljlambda 0.200000  6.110  0.945946  18.330  0.000
pair_coeff  10  15 ljlambda 0.200000  5.520  0.743244  16.560  0.000
pair_coeff  10  16 ljlambda 0.200000  5.970  0.702703  17.910  0.000
pair_coeff  10  17 ljlambda 0.200000  5.770  0.662162  17.310  0.000
pair_coeff  10  18 ljlambda 0.200000  5.710  0.945946  17.130  0.000
pair_coeff  10  19 ljlambda 0.200000  5.670  0.743244  17.010  0.000
pair_coeff  10  20 ljlambda 0.200000  6.020  0.932433  18.060  0.000
pair_coeff  10  21 ljlambda 0.200000  6.020  0.605405  18.060  0.000
pair_coeff  10  22 ljlambda 0.200000  5.180  0.539189  15.540  0.000
pair_coeff  10  23 ljlambda 0.200000  6.110  0.491892  18.330  0.000
pair_coeff  10  24 ljlambda 0.200000  5.740  0.548649  17.220  0.000
pair_coeff  10  25 ljlambda 0.200000  6.210  0.312162  18.630  0.000
pair_coeff  10  26 ljlambda 0.200000  5.450  0.567568  16.350  0.000
pair_coeff  10  27 ljlambda 0.200000  5.720  0.444594  17.160  0.000
pair_coeff  10  28 ljlambda 0.200000  5.890  0.472973  17.670  0.000
pair_coeff  10  29 ljlambda 0.200000  6.160  0.614865  18.480  0.000
pair_coeff  10  30 ljlambda 0.200000  5.860  0.624324  17.580  0.000
pair_coeff  10  31 ljlambda 0.200000  6.020  0.652703  18.060  0.000
pair_coeff  10  32 ljlambda 0.200000  5.940  0.491892  17.820  0.000
pair_coeff  10  33 ljlambda 0.200000  6.320  0.643243  18.960  0.000
pair_coeff  10  34 ljlambda 0.200000  6.110  0.662162  18.330  0.000
pair_coeff  10  35 ljlambda 0.200000  5.520  0.520271  16.560  0.000
pair_coeff  10  36 ljlambda 0.200000  5.970  0.491892  17.910  0.000
pair_coeff  10  37 ljlambda 0.200000  5.770  0.463513  17.310  0.000
pair_coeff  10  38 ljlambda 0.200000  5.710  0.662162  17.130  0.000
pair_coeff  10  39 ljlambda 0.200000  5.670  0.520271  17.010  0.000
pair_coeff  10  40 ljlambda 0.200000  6.020  0.652703  18.060  0.000
pair_coeff  11  11 ljlambda 0.200000  6.180  0.972973  18.540  0.000
pair_coeff  11  12 ljlambda 0.200000  6.100  0.743243  18.300  0.000
pair_coeff  11  13 ljlambda 0.200000  6.480  0.959459  19.440  0.000
pair_coeff  11  14 ljlambda 0.200000  6.270  0.986486  18.810  0.000
pair_coeff  11  15 ljlambda 0.200000  5.680  0.783784  17.040  0.000
pair_coeff  11  16 ljlambda 0.200000  6.130  0.743243  18.390  0.000
pair_coeff  11  17 ljlambda 0.200000  5.930  0.702703  17.790  0.000
pair_coeff  11  18 ljlambda 0.200000  5.870  0.986486  17.610  0.000
pair_coeff  11  19 ljlambda 0.200000  5.830  0.783784  17.490  0.000
pair_coeff  11  20 ljlambda 0.200000  6.180  0.972973  18.540  0.000
pair_coeff  11  21 ljlambda 0.200000  6.180  0.633784  18.540  0.000
pair_coeff  11  22 ljlambda 0.200000  5.340  0.567568  16.020  0.000
pair_coeff  11  23 ljlambda 0.200000  6.270  0.52027   18.810  0.000
pair_coeff  11  24 ljlambda 0.200000  5.900  0.577027  17.700  0.000
pair_coeff  11  25 ljlambda 0.200000  6.370  0.34054   19.110  0.000
pair_coeff  11  26 ljlambda 0.200000  5.610  0.595946  16.830  0.000
pair_coeff  11  27 ljlambda 0.200000  5.880  0.472973  17.640  0.000
pair_coeff  11  28 ljlambda 0.200000  6.050  0.501351  18.150  0.000
pair_coeff  11  29 ljlambda 0.200000  6.320  0.643243  18.960  0.000
pair_coeff  11  30 ljlambda 0.200000  6.020  0.652703  18.060  0.000
pair_coeff  11  31 ljlambda 0.200000  6.180  0.681081  18.540  0.000
pair_coeff  11  32 ljlambda 0.200000  6.100  0.52027   18.300  0.000
pair_coeff  11  33 ljlambda 0.200000  6.480  0.671621  19.440  0.000
pair_coeff  11  34 ljlambda 0.200000  6.270  0.69054   18.810  0.000
pair_coeff  11  35 ljlambda 0.200000  5.680  0.548649  17.040  0.000
pair_coeff  11  36 ljlambda 0.200000  6.130  0.52027   18.390  0.000
pair_coeff  11  37 ljlambda 0.200000  5.930  0.491892  17.790  0.000
pair_coeff  11  38 ljlambda 0.200000  5.870  0.69054   17.610  0.000
pair_coeff  11  39 ljlambda 0.200000  5.830  0.548649  17.490  0.000
pair_coeff  11  40 ljlambda 0.200000  6.180  0.681081  18.540  0.000
pair_coeff  12  12 ljlambda 0.200000  6.020  0.513514  18.060  0.000
pair_coeff  12  13 ljlambda 0.200000  6.400  0.729730  19.200  0.000
pair_coeff  12  14 ljlambda 0.200000  6.190  0.756757  18.570  0.000
pair_coeff  12  15 ljlambda 0.200000  5.600  0.554054  16.800  0.000
pair_coeff  12  16 ljlambda 0.200000  6.050  0.513514  18.150  0.000
pair_coeff  12  17 ljlambda 0.200000  5.850  0.472973  17.550  0.000
pair_coeff  12  18 ljlambda 0.200000  5.790  0.756757  17.370  0.000
pair_coeff  12  19 ljlambda 0.200000  5.750  0.554054  17.250  0.000
pair_coeff  12  20 ljlambda 0.200000  6.100  0.743243  18.300  0.000
pair_coeff  12  21 ljlambda 0.200000  6.100  0.472973  18.300  0.000
pair_coeff  12  22 ljlambda 0.200000  5.260  0.406757  15.780  0.000
pair_coeff  12  23 ljlambda 0.200000  6.190  0.35946   18.570  0.000
pair_coeff  12  24 ljlambda 0.200000  5.820  0.416216  17.460  0.000
pair_coeff  12  25 ljlambda 0.200000  6.290  0.17973   18.870  0.000
pair_coeff  12  26 ljlambda 0.200000  5.530  0.435135  16.590  0.000
pair_coeff  12  27 ljlambda 0.200000  5.800  0.312162  17.400  0.000
pair_coeff  12  28 ljlambda 0.200000  5.970  0.34054   17.910  0.000
pair_coeff  12  29 ljlambda 0.200000  6.240  0.482432  18.720  0.000
pair_coeff  12  30 ljlambda 0.200000  5.940  0.491892  17.820  0.000
pair_coeff  12  31 ljlambda 0.200000  6.100  0.52027   18.300  0.000
pair_coeff  12  32 ljlambda 0.200000  6.020  0.35946   18.060  0.000
pair_coeff  12  33 ljlambda 0.200000  6.400  0.510811  19.200  0.000
pair_coeff  12  34 ljlambda 0.200000  6.190  0.52973   18.570  0.000
pair_coeff  12  35 ljlambda 0.200000  5.600  0.387838  16.800  0.000
pair_coeff  12  36 ljlambda 0.200000  6.050  0.35946   18.150  0.000
pair_coeff  12  37 ljlambda 0.200000  5.850  0.331081  17.550  0.000
pair_coeff  12  38 ljlambda 0.200000  5.790  0.52973   17.370  0.000
pair_coeff  12  39 ljlambda 0.200000  5.750  0.387838  17.250  0.000
pair_coeff  12  40 ljlambda 0.200000  6.100  0.52027   18.300  0.000
pair_coeff  13  13 ljlambda 0.200000  6.780  0.945946  20.340  0.000
pair_coeff  13  14 ljlambda 0.200000  6.570  0.972973  19.710  0.000
pair_coeff  13  15 ljlambda 0.200000  5.980  0.770270  17.940  0.000
pair_coeff  13  16 ljlambda 0.200000  6.430  0.729730  19.290  0.000
pair_coeff  13  17 ljlambda 0.200000  6.230  0.689189  18.690  0.000
pair_coeff  13  18 ljlambda 0.200000  6.170  0.972973  18.510  0.000